************************************************************************
file with basedata            : md338_.bas
initial value random generator: 1841395836
************************************************************************
projects                      :  1
jobs (incl. supersource/sink ):  22
horizon                       :  157
RESOURCES
  - renewable                 :  2   R
  - nonrenewable              :  2   N
  - doubly constrained        :  0   D
************************************************************************
PROJECT INFORMATION:
pronr.  #jobs rel.date duedate tardcost  MPM-Time
    1     20      0       21       18       21
************************************************************************
PRECEDENCE RELATIONS:
jobnr.    #modes  #successors   successors
   1        1          3           2   3   4
   2        3          3           6   7   9
   3        3          3           5   8  10
   4        3          3           8  12  15
   5        3          2          12  17
   6        3          3          10  12  15
   7        3          2          11  17
   8        3          2          13  14
   9        3          1          16
  10        3          2          20  21
  11        3          2          14  15
  12        3          2          13  16
  13        3          1          19
  14        3          2          19  21
  15        3          1          16
  16        3          1          20
  17        3          3          18  19  21
  18        3          1          20
  19        3          1          22
  20        3          1          22
  21        3          1          22
  22        1          0        
************************************************************************
REQUESTS/DURATIONS:
jobnr. mode duration  R 1  R 2  N 1  N 2
------------------------------------------------------------------------
  1      1     0       0    0    0    0
  2      1     2       0    3    3    0
         2     6       7    0    2    0
         3     9       0    3    0    6
  3      1     2       0    3    0    7
         2     4       6    0    0    7
         3     7       6    0    0    5
  4      1     1       0    3    0    9
         2     2       5    0    0    8
         3     4       4    0    0    7
  5      1     9       0    8    4    0
         2     9       0    6    5    0
         3    10       5    0    0    3
  6      1     1       7    0    0    5
         2     8       0    2    8    0
         3    10       6    0    0    4
  7      1     3       0    7    7    0
         2     5       0    5    7    0
         3     9       0    3    6    0
  8      1     5       5    0    8    0
         2     7       5    0    5    0
         3     9       0    8    0    1
  9      1     2       0    3    9    0
         2     3       3    0    9    0
         3     7       1    0    0    3
 10      1     1       6    0    0    2
         2     3       0   10   10    0
         3     7       5    0    8    0
 11      1     2       0    4    0    6
         2     6       0    3    0    4
         3     7       6    0    0    3
 12      1     2       8    0    9    0
         2     3       0    2    6    0
         3     7       3    0    0    9
 13      1     1       0   10    2    0
         2     1      10    0    4    0
         3     9       0   10    0    4
 14      1     3       6    0    5    0
         2     3       0    1    9    0
         3     6       8    0    3    0
 15      1     3       5    0    4    0
         2     6       4    0    0    8
         3     6       5    0    0    2
 16      1     5       2    0    0    8
         2     7       0    3    0    8
         3     9       0    2    7    0
 17      1     1       6    0    4    0
         2     4       5    0    2    0
         3     9       3    0    2    0
 18      1     3       0    7    0    8
         2     6       0    4    0    7
         3     8       5    0    0    4
 19      1     1       0    8    4    0
         2     2       7    0    0    6
         3     8       0    8    0    2
 20      1     3       9    0   10    0
         2     7       0    7    0    7
         3     7       8    0   10    0
 21      1     1       6    0    0    2
         2     3       5    0    0    1
         3     9       0    5    5    0
 22      1     0       0    0    0    0
************************************************************************
RESOURCEAVAILABILITIES:
  R 1  R 2  N 1  N 2
   16   16   82   75
************************************************************************
MAXIMAL LAGS:
from  to  type  delay
    1   12   ES      0
    1    2   ES      0
    2   12   ES      0
    1    3   ES      0
    3   12   ES      0
    1    4   ES      0
    4   12   ES      0
    1    5   ES      0
    5   12   ES      0
    1    6   ES      0
    6   12   ES      0
    1    7   ES      0
    7   12   ES      0
    1    8   ES      0
    8   12   ES      0
    1    9   ES      0
    9   12   ES      0
    1   10   ES      0
   10   12   ES      0
    1   11   ES      0
   11   12   ES      0
    1   12   ES      0
    2    6   SS     11
    2    6   SE    -10
    2    6   ES     -3
    2    6   EE      8
    2    7   SS      2
    2    7   SE     -1
    2    7   ES     10
    2    7   EE     10
    2    9   SS     -3
    2    9   SE      0
    2    9   ES      7
    2    9   EE     -7
    3    5   SS      1
    3    5   SE     -5
    3    5   ES     -7
    3    5   EE      7
    3    8   SS     11
    3    8   SE      1
    3    8   ES      2
    3    8   EE      0
    3   10   SS      9
    3   10   SE     -7
    3   10   ES     10
    3   10   EE      6
    4    8   SS     -9
    4    8   SE      0
    4    8   ES     10
    4    8   EE    -11
    4   15   SS     -5
    4   15   SE     -7
    4   15   ES     -4
    4   15   EE      8
    5   17   SS      5
    5   17   SE     -3
    5   17   ES      9
    5   17   EE    -10
    6   10   SS     10
    6   10   SE     11
    6   10   ES     11
    6   10   EE     -6
    6   15   SS      3
    6   15   SE      1
    6   15   ES     12
    6   15   EE      5
    7   11   SS     -9
    7   11   SE     -1
    7   11   ES    -10
    7   11   EE     12
    7   17   SS     -9
    7   17   SE      4
    7   17   ES     12
    7   17   EE     12
    8   13   SS     -2
    8   13   SE      1
    8   13   ES      2
    8   13   EE     -7
    8   14   SS     -4
    8   14   SE     -6
    8   14   ES      4
    8   14   EE    -11
    9   16   SS      2
    9   16   SE    -12
    9   16   ES    -10
    9   16   EE      8
   10   20   SS     10
   10   20   SE      9
   10   20   ES     11
   10   20   EE      2
   10   21   SS      0
   10   21   SE     -2
   10   21   ES     11
   10   21   EE      0
   11   14   SS     -6
   11   14   SE      0
   11   14   ES    -11
   11   14   EE    -12
   11   15   SS     -4
   11   15   SE     -9
   11   15   ES     10
   11   15   EE     -8
   12   13   SS     -2
   12   13   SE      9
   12   13   ES     11
   12   13   EE      2
   12   16   SS      3
   12   16   SE      2
   12   16   ES    -10
   12   16   EE    -10
   13   19   SS      5
   13   19   SE      9
   13   19   ES     -5
   13   19   EE     10
   14   19   SS      2
   14   19   SE     -8
   14   19   ES      3
   14   19   EE     -4
   14   21   SS     -7
   14   21   SE     -7
   14   21   ES    -12
   14   21   EE      7
   15   16   SS     -9
   15   16   SE     -7
   15   16   ES     -3
   15   16   EE     -9
   16   20   SS      5
   16   20   SE     11
   20   16   SE      0
   16   20   ES      0
   16   20   EE     -7
   17   18   SS    -10
   17   18   SE      9
   17   18   ES     12
   17   18   EE    -12
   17   19   SS      9
   17   19   SE     -4
   17   19   ES     -8
   17   19   EE      2
   17   21   SS     -1
   17   21   SE     -7
   17   21   ES     -6
   17   21   EE     10
   18   20   SS    -11
   18   20   SE      9
   18   20   ES      5
   18   20   EE     -6
   19   22   SS      2
   19   22   SE     10
   19   22   ES    -11
   19   22   EE      8
   20   22   SS      4
   20   22   SE      8
   20   22   ES      9
   20   22   EE     10
   21   22   SS      9
   21   22   SE     -9
   21   22   ES      0
   21   22   EE     10
************************************************************************
